(set-logic QF_S)
(declare-fun var_0xINPUT_124163 () String)
(assert (and (= (len var_0xINPUT_124163) 0) (= (len var_0xINPUT_124163) 0) (not (= var_0xINPUT_124163 "MEXdqBDMmF"))))
(check-sat var_0xINPUT_124163)